p tw 182 9101 1 
1 2 
1 3 
1 4 
1 5 
1 6 
1 7 
1 8 
1 9 
1 10 
1 11 
1 12 
1 13 
1 14 
1 15 
1 16 
1 17 
1 18 
1 19 
1 20 
1 21 
1 22 
1 23 
1 24 
1 25 
1 26 
1 27 
1 28 
1 29 
1 30 
1 31 
1 32 
1 33 
1 34 
1 35 
1 36 
1 37 
1 38 
1 39 
1 40 
1 41 
1 42 
1 43 
1 44 
1 45 
1 46 
1 47 
1 48 
1 49 
1 50 
1 51 
1 52 
1 53 
1 54 
1 55 
1 56 
1 57 
1 58 
1 59 
1 60 
1 61 
1 62 
1 63 
1 64 
1 65 
1 66 
1 67 
1 68 
1 69 
1 70 
1 71 
1 72 
1 73 
1 74 
1 75 
1 76 
1 77 
1 78 
1 79 
1 80 
1 81 
1 82 
1 83 
1 84 
1 85 
1 86 
1 87 
1 88 
1 89 
1 90 
1 91 
2 92 
2 93 
2 94 
2 95 
2 96 
2 97 
2 98 
2 99 
2 100 
2 101 
2 102 
2 103 
2 104 
2 105 
2 106 
2 107 
2 108 
2 109 
2 110 
2 111 
2 112 
2 113 
2 114 
2 115 
2 116 
2 117 
2 118 
2 119 
2 120 
2 121 
2 122 
2 123 
2 124 
2 125 
2 126 
2 127 
2 128 
2 129 
2 130 
2 131 
2 132 
2 133 
2 134 
2 135 
2 136 
2 137 
2 138 
2 139 
2 140 
2 141 
2 142 
2 143 
2 144 
2 145 
2 146 
2 147 
2 148 
2 149 
2 150 
2 151 
2 152 
2 153 
2 154 
2 155 
2 156 
2 157 
2 158 
2 159 
2 160 
2 161 
2 162 
2 163 
2 164 
2 165 
2 166 
2 167 
2 168 
2 169 
2 170 
2 171 
2 172 
2 173 
2 174 
2 175 
2 176 
2 177 
2 178 
2 179 
2 180 
2 181 
2 182 
1 93 
1 94 
1 95 
1 96 
1 97 
1 98 
1 99 
1 100 
1 101 
1 102 
2 92 
2 94 
2 103 
2 104 
2 105 
2 106 
2 107 
2 108 
2 109 
2 110 
3 92 
3 93 
3 111 
3 112 
3 113 
3 114 
3 115 
3 116 
3 117 
3 118 
4 92 
4 95 
4 127 
4 137 
4 148 
4 155 
4 167 
4 178 
4 179 
4 180 
5 92 
5 96 
5 119 
5 132 
5 138 
5 149 
5 153 
5 159 
5 160 
5 161 
6 92 
6 97 
6 123 
6 128 
6 133 
6 154 
6 156 
6 164 
6 169 
6 170 
7 92 
7 98 
7 120 
7 134 
7 141 
7 163 
7 166 
7 173 
7 176 
7 177 
8 92 
8 99 
8 124 
8 129 
8 135 
8 142 
8 144 
8 145 
8 146 
8 147 
9 92 
9 100 
9 122 
9 130 
9 150 
9 151 
9 165 
9 168 
9 174 
9 175 
10 92 
10 101 
10 125 
10 131 
10 139 
10 143 
10 157 
10 162 
10 181 
10 182 
11 92 
11 102 
11 121 
11 126 
11 136 
11 140 
11 152 
11 158 
11 171 
11 172 
12 93 
12 103 
12 128 
12 136 
12 144 
12 151 
12 159 
12 162 
12 177 
12 178 
13 93 
13 104 
13 124 
13 130 
13 138 
13 156 
13 166 
13 172 
13 180 
13 181 
14 93 
14 105 
14 122 
14 129 
14 134 
14 153 
14 155 
14 157 
14 169 
14 171 
15 93 
15 106 
15 123 
15 135 
15 141 
15 158 
15 160 
15 174 
15 179 
15 182 
16 93 
16 107 
16 125 
16 126 
16 137 
16 145 
16 161 
16 164 
16 175 
16 176 
17 93 
17 108 
17 120 
17 133 
17 140 
17 143 
17 146 
17 148 
17 149 
17 150 
18 93 
18 109 
18 119 
18 127 
18 139 
18 147 
18 152 
18 165 
18 170 
18 173 
19 93 
19 110 
19 121 
19 131 
19 132 
19 142 
19 154 
19 163 
19 167 
19 168 
20 94 
20 111 
20 129 
20 136 
20 139 
20 150 
20 160 
20 164 
20 166 
20 167 
21 94 
21 112 
21 120 
21 132 
21 137 
21 144 
21 157 
21 170 
21 172 
21 174 
22 94 
22 113 
22 125 
22 130 
22 147 
22 149 
22 154 
22 171 
22 177 
22 179 
23 94 
23 114 
23 119 
23 128 
23 146 
23 155 
23 158 
23 163 
23 175 
23 181 
24 94 
24 115 
24 122 
24 126 
24 133 
24 142 
24 159 
24 173 
24 180 
24 182 
25 94 
25 116 
25 124 
25 127 
25 140 
25 141 
25 161 
25 162 
25 168 
25 169 
26 94 
26 117 
26 123 
26 131 
26 134 
26 138 
26 145 
26 148 
26 151 
26 152 
27 94 
27 118 
27 121 
27 135 
27 143 
27 153 
27 156 
27 165 
27 176 
27 178 
28 95 
28 103 
28 111 
28 119 
28 120 
28 121 
28 122 
28 123 
28 124 
28 125 
29 95 
29 104 
29 112 
29 126 
29 139 
29 141 
29 146 
29 151 
29 153 
29 154 
30 95 
30 105 
30 113 
30 131 
30 133 
30 144 
30 158 
30 161 
30 165 
30 166 
31 95 
31 106 
31 114 
31 138 
31 142 
31 150 
31 162 
31 170 
31 171 
31 176 
32 95 
32 107 
32 115 
32 128 
32 134 
32 143 
32 147 
32 160 
32 168 
32 172 
33 95 
33 108 
33 116 
33 130 
33 135 
33 152 
33 157 
33 159 
33 163 
33 164 
34 95 
34 109 
34 117 
34 129 
34 132 
34 140 
34 156 
34 175 
34 177 
34 182 
35 95 
35 110 
35 118 
35 136 
35 145 
35 149 
35 169 
35 173 
35 174 
35 181 
36 96 
36 103 
36 112 
36 134 
36 140 
36 142 
36 164 
36 165 
36 179 
36 181 
37 97 
37 103 
37 113 
37 127 
37 145 
37 150 
37 153 
37 163 
37 172 
37 182 
38 98 
38 103 
38 114 
38 129 
38 143 
38 152 
38 154 
38 161 
38 174 
38 180 
39 99 
39 103 
39 115 
39 130 
39 132 
39 139 
39 148 
39 158 
39 169 
39 176 
40 100 
40 103 
40 116 
40 131 
40 137 
40 146 
40 156 
40 160 
40 171 
40 173 
41 101 
41 103 
41 117 
41 126 
41 135 
41 149 
41 155 
41 166 
41 168 
41 170 
42 102 
42 103 
42 118 
42 133 
42 138 
42 141 
42 147 
42 157 
42 167 
42 175 
43 96 
43 105 
43 111 
43 135 
43 148 
43 154 
43 162 
43 172 
43 173 
43 175 
44 97 
44 104 
44 111 
44 131 
44 140 
44 147 
44 155 
44 159 
44 174 
44 176 
45 98 
45 107 
45 111 
45 127 
45 142 
45 149 
45 151 
45 156 
45 157 
45 158 
46 99 
46 106 
46 111 
46 133 
46 137 
46 152 
46 153 
46 168 
46 177 
46 181 
47 100 
47 109 
47 111 
47 126 
47 138 
47 143 
47 144 
47 163 
47 169 
47 179 
48 101 
48 108 
48 111 
48 128 
48 132 
48 141 
48 145 
48 165 
48 171 
48 180 
49 102 
49 110 
49 111 
49 130 
49 134 
49 146 
49 161 
49 170 
49 178 
49 182 
50 96 
50 106 
50 118 
50 120 
50 126 
50 127 
50 128 
50 129 
50 130 
50 131 
51 96 
51 107 
51 117 
51 124 
51 133 
51 139 
51 163 
51 171 
51 174 
51 178 
52 96 
52 108 
52 114 
52 121 
52 137 
52 147 
52 151 
52 166 
52 169 
52 182 
53 96 
53 104 
53 116 
53 122 
53 143 
53 145 
53 158 
53 167 
53 170 
53 177 
54 96 
54 109 
54 113 
54 123 
54 136 
54 146 
54 157 
54 168 
54 176 
54 180 
55 96 
55 110 
55 115 
55 125 
55 141 
55 144 
55 150 
55 152 
55 155 
55 156 
56 100 
56 104 
56 114 
56 125 
56 127 
56 132 
56 133 
56 134 
56 135 
56 136 
57 102 
57 104 
57 115 
57 123 
57 129 
57 137 
57 149 
57 162 
57 163 
57 165 
58 99 
58 104 
58 117 
58 121 
58 128 
58 150 
58 157 
58 161 
58 173 
58 179 
59 101 
59 104 
59 113 
59 120 
59 142 
59 152 
59 160 
59 169 
59 175 
59 178 
60 98 
60 104 
60 118 
60 119 
60 144 
60 148 
60 164 
60 168 
60 171 
60 182 
61 98 
61 110 
61 113 
61 122 
61 128 
61 135 
61 137 
61 138 
61 139 
61 140 
62 102 
62 106 
62 113 
62 124 
62 132 
62 143 
62 151 
62 155 
62 164 
62 173 
63 99 
63 108 
63 113 
63 119 
63 126 
63 134 
63 156 
63 162 
63 167 
63 174 
64 100 
64 107 
64 113 
64 121 
64 129 
64 141 
64 148 
64 159 
64 170 
64 181 
65 100 
65 110 
65 117 
65 120 
65 147 
65 153 
65 158 
65 162 
65 164 
65 180 
66 98 
66 106 
66 117 
66 125 
66 146 
66 159 
66 165 
66 167 
66 169 
66 172 
67 97 
67 105 
67 117 
67 119 
67 130 
67 136 
67 137 
67 141 
67 142 
67 143 
68 102 
68 108 
68 117 
68 122 
68 127 
68 144 
68 154 
68 160 
68 176 
68 181 
69 98 
69 108 
69 115 
69 124 
69 131 
69 136 
69 153 
69 170 
69 175 
69 179 
70 97 
70 109 
70 115 
70 120 
70 135 
70 151 
70 161 
70 167 
70 171 
70 181 
71 97 
71 106 
71 116 
71 121 
71 134 
71 139 
71 144 
71 149 
71 175 
71 180 
72 97 
72 110 
72 114 
72 124 
72 126 
72 148 
72 157 
72 160 
72 165 
72 177 
73 97 
73 108 
73 112 
73 125 
73 129 
73 138 
73 158 
73 168 
73 173 
73 178 
74 97 
74 107 
74 118 
74 122 
74 132 
74 146 
74 152 
74 162 
74 166 
74 179 
75 100 
75 108 
75 118 
75 123 
75 139 
75 142 
75 155 
75 161 
75 172 
75 177 
76 101 
76 105 
76 115 
76 121 
76 127 
76 138 
76 146 
76 164 
76 174 
76 177 
77 99 
77 105 
77 118 
77 125 
77 140 
77 151 
77 160 
77 163 
77 170 
77 180 
78 102 
78 105 
78 114 
78 120 
78 139 
78 145 
78 156 
78 159 
78 168 
78 179 
79 98 
79 105 
79 116 
79 123 
79 126 
79 132 
79 147 
79 150 
79 178 
79 181 
80 100 
80 105 
80 112 
80 124 
80 128 
80 149 
80 152 
80 167 
80 176 
80 182 
81 98 
81 109 
81 112 
81 121 
81 130 
81 133 
81 145 
81 155 
81 160 
81 162 
82 101 
82 106 
82 112 
82 122 
82 136 
82 147 
82 148 
82 156 
82 161 
82 163 
83 100 
83 106 
83 115 
83 119 
83 140 
83 145 
83 154 
83 157 
83 166 
83 178 
84 101 
84 110 
84 116 
84 119 
84 129 
84 133 
84 151 
84 172 
84 176 
84 179 
85 99 
85 110 
85 112 
85 123 
85 127 
85 143 
85 159 
85 166 
85 171 
85 175 
86 102 
86 107 
86 112 
86 119 
86 131 
86 135 
86 150 
86 169 
86 177 
86 180 
87 99 
87 107 
87 116 
87 120 
87 136 
87 138 
87 154 
87 155 
87 165 
87 182 
88 99 
88 109 
88 114 
88 122 
88 131 
88 141 
88 149 
88 164 
88 172 
88 178 
89 101 
89 107 
89 114 
89 123 
89 130 
89 140 
89 144 
89 153 
89 167 
89 173 
90 102 
90 109 
90 116 
90 125 
90 128 
90 142 
90 148 
90 153 
90 166 
90 174 
91 101 
91 109 
91 118 
91 124 
91 134 
91 137 
91 150 
91 154 
91 158 
91 159 
